0 1 0 1 1 0 0 0 
0 36 30 59 77 39 43 58 
36 0 21 59 44 57 67 19 
30 21 0 24 34 65 21 36 
59 59 24 0 57 70 44 38 
77 44 34 57 0 16 73 39 
39 57 65 70 16 0 38 30 
43 67 21 44 73 38 0 48 
58 19 36 38 39 30 48 0 
2 50
1B 6B 5P 2P 8B 4P 3B 7B = 244